CMPL model generation - running

CMPL version: 1.11.0
Authors: Thomas Schleiff, Mike Steglich
Distributed under the GPLv3 

create model instance ...
write model instance ...
CMPL model generation - finished

Solver - running


Welcome to IBM(R) ILOG(R) CPLEX(R) Interactive Optimizer 12.7.1.0
  with Simplex, Mixed Integer & Barrier Optimizers
5725-A06 5725-A29 5724-Y48 5724-Y49 5724-Y54 5724-Y55 5655-Y21
Copyright IBM Corp. 1988, 2017.  All Rights Reserved.

Type 'help' for a list of available commands.
Type 'help' followed by a command name for more
information on commands.

CPLEX> Specified objective sense: MINIMIZE
Selected objective  name:  line[1]
Selected RHS        name:  RHS
Selected bound      name:  BOUND
Problem '/tmp/cmpl.T27379.mps' read.
Read time = 0.16 sec. (20.23 ticks)
CPLEX> New value for mixed integer optimality gap tolerance: 0.007
CPLEX> CPLEX> CPXPARAM_Read_APIEncoding                        "UTF-8"
CPXPARAM_MIP_Tolerances_MIPGap                   0.0070000000000000001
Tried aggregator 3 times.
MIP Presolve eliminated 81390 rows and 53309 columns.
MIP Presolve modified 8351 coefficients.
Aggregator did 1753 substitutions.
Reduced MIP has 7084 rows, 5158 columns, and 21928 nonzeros.
Reduced MIP has 3535 binaries, 0 generals, 0 SOSs, and 0 indicators.
Presolve time = 0.13 sec. (105.48 ticks)
Found incumbent of value 4737.320058 after 0.16 sec. (123.76 ticks)
Probing fixed 0 vars, tightened 366 bounds.
Probing time = 0.05 sec. (15.71 ticks)
Tried aggregator 1 time.
MIP Presolve modified 1004 coefficients.
Reduced MIP has 7084 rows, 5158 columns, and 21928 nonzeros.
Reduced MIP has 3745 binaries, 0 generals, 0 SOSs, and 0 indicators.
Presolve time = 0.02 sec. (16.69 ticks)
Probing time = 0.01 sec. (3.04 ticks)
Clique table members: 3015.
MIP emphasis: balance optimality and feasibility.
MIP search method: dynamic search.
Parallel mode: none, using 1 thread.
Root relaxation solution time = 0.44 sec. (311.98 ticks)

        Nodes                                         Cuts/
   Node  Left     Objective  IInf  Best Integer    Best Bound    ItCnt     Gap

*     0+    0                         4737.3201     -442.5014           109.34%
      0     0     2142.2180   465     4737.3201     2142.2180     6308   54.78%
*     0+    0                         2178.0855     2142.2180             1.65%
      0     0     2143.7704   487     2178.0855     Cuts: 378     7166    1.58%
*     0+    0                         2176.4726     2143.7704             1.50%
      0     0     2144.9955   447     2176.4726     Cuts: 427     7979    1.45%
*     0+    0                         2174.3467     2144.9955             1.35%
      0     0     2146.2037   451     2174.3467     Cuts: 426     8700    1.29%
*     0+    0                         2168.8732     2146.2037             1.05%
*     0+    0                         2168.8330     2146.2037             1.04%
      0     0     2147.3872   437     2168.8330     Cuts: 438     9518    0.99%
*     0+    0                         2167.9588     2147.3872             0.95%
      0     0     2148.0711   446     2167.9588     Cuts: 397    10225    0.92%
      0     0     2148.4821   443     2167.9588     Cuts: 323    10774    0.90%
      0     0     2148.8355   439     2167.9588     Cuts: 288    11248    0.88%
      0     0     2149.0772   447     2167.9588     Cuts: 247    11643    0.87%
      0     0     2149.2615   449     2167.9588     Cuts: 204    12006    0.86%
      0     0     2149.3767   459     2167.9588     Cuts: 192    12307    0.86%
*     0+    0                         2162.6408     2149.3767             0.61%

Flow cuts applied:  621
Mixed integer rounding cuts applied:  605
Zero-half cuts applied:  1
Gomory fractional cuts applied:  13

Root node processing (before b&c):
  Real time             =    4.13 sec. (3330.78 ticks)
Sequential b&c:
  Real time             =    0.00 sec. (0.00 ticks)
                          ------------
Total (root+branch&cut) =    4.13 sec. (3330.78 ticks)

Solution pool: 8 solutions saved.

MIP - Integer optimal, tolerance (0.007/1e-06):  Objective =  2.1626408010e+03
Current MIP best bound =  2.1493766778e+03 (gap = 13.2641, 0.61%)
Solution time =    4.13 sec.  Iterations = 12307  Nodes = 0 (1)
Deterministic time = 3330.95 ticks  (805.95 ticks/sec)

CPLEX> Incumbent solution written to file '/tmp/cmpl.T27379.gsol'.
CPLEX> 
CMPL: Time used for model generation: 19 seconds
CMPL: Time used for solving the model: 6 seconds


Solution written to ASCII file: /media/sf_ltf/results/output_generated/2016-12-05-5/fair-nonlinear.sol

Solver - finished
